2
44
66
40	34
1	1	26	3	
2	1	8	9	
3	2	7	11	13	6	
4	1	9	8	
5	1	6	11	
6	2	8	9	6	9	
7	1	11	8	
8	2	20	5	29	2	
9	1	5	10	
10	2	16	9	10	8	
11	1	5	17	
12	1	5	13	
13	1	29	4	
14	2	34	3	21	3	
15	2	5	18	19	3	
16	1	18	8	
17	1	18	5	
18	2	7	17	5	11	
19	1	16	9	
20	1	24	4	
21	1	9	8	
22	1	20	3	
23	1	4	13	
24	2	5	13	13	6	
25	1	6	8	
26	1	5	11	
27	2	7	17	10	9	
28	2	14	5	26	3	
29	2	6	16	7	14	
30	2	7	16	20	3	
31	2	6	13	25	3	
32	2	15	6	26	2	
33	1	6	8	
34	2	5	13	4	13	
35	2	12	5	25	2	
36	2	4	18	22	3	
37	2	5	13	23	2	
38	2	6	17	27	2	
39	2	7	14	11	8	
40	1	10	6	
41	2	6	17	32	3	
42	1	21	4	
43	2	28	3	26	2	
44	1	16	3	
